(set-logic QF_BV)
(declare-fun x0 () (_ BitVec 32))
(assert (let ( (?v_7 (bvsdiv (bvadd (_ bv0 32) (_ bv200000000 32)) x0))) (let ( (?v_53 (bvsub (_ bv0 32) ?v_7))) (and true (bvult (_ bv0 32) (bvadd (_ bv0 32) ?v_53)) true))))
(check-sat)
(exit)
